HUN,8,6,382
1,29,2,26,0,10,4,30,5,25,3,5
2,14,1,1,0,20,5,3,4,27,3,6
0,5,2,5,1,15,3,11,4,9,5,25
1,18,2,14,0,4,3,22,5,8,4,10
0,20,2,11,1,20,3,29,4,17,5,23
1,5,0,15,2,25,3,24,4,24,5,9
1,12,0,19,2,7,3,29,5,16,4,7
2,19,1,16,0,17,5,15,3,5,4,29
